Solver command line: ['C:\\gurobi1102\\win64\\bin\\gurobi.bat']

Set parameter Username
Academic license - for non-commercial use only - expires 2025-06-25
Read LP format model from file C:\Users\danin\AppData\Local\Temp\tmp6o_zed7q.pyomo.lp
Reading time = 0.14 seconds
x1: 17001 rows, 16900 columns, 126398 nonzeros
Set parameter Cuts to value 0
Set parameter Presolve to value 0
Set parameter TimeLimit to value 10
Set parameter Threads to value 6
Gurobi Optimizer version 11.0.2 build v11.0.2rc0 (win64 - Windows 11.0 (22631.2))

CPU model: AMD Ryzen 5 4600H with Radeon Graphics, instruction set [SSE2|AVX|AVX2]
Thread count: 6 physical cores, 12 logical processors, using up to 6 threads

Optimize a model with 17001 rows, 16900 columns and 126398 nonzeros
Model fingerprint: 0x3c95d0d6
Variable types: 625 continuous, 16275 integer (16275 binary)
Coefficient statistics:
  Matrix range     [1e+00, 2e+02]
  Objective range  [7e+00, 7e+01]
  Bounds range     [1e+00, 1e+00]
  RHS range        [1e+00, 2e+02]
Variable types: 625 continuous, 16275 integer (16275 binary)
Found heuristic solution: objective 1246.1601802
Deterministic concurrent LP optimizer: primal and dual simplex
Showing primal log only...

Concurrent spin time: 0.01s

Solved with dual simplex

Root relaxation: objective 6.183299e+02, 1278 iterations, 0.11 seconds (0.08 work units)

    Nodes    |    Current Node    |     Objective Bounds      |     Work
 Expl Unexpl |  Obj  Depth IntInf | Incumbent    BestBd   Gap | It/Node Time

     0     0  618.32992    0   10 1246.16018  618.32992  50.4%     -    0s
     0     0  618.32992    0    7 1246.16018  618.32992  50.4%     -    0s
H    0     0                     618.3299155  618.32992  0.00%     -    0s
     0     0  618.32992    0    7  618.32992  618.32992  0.00%     -    0s

Explored 1 nodes (1617 simplex iterations) in 0.65 seconds (0.48 work units)
Thread count was 6 (of 12 available processors)

Solution count 2: 618.33 1246.16 

Optimal solution found (tolerance 1.00e-04)
Best objective 6.183299155463e+02, best bound 6.183299155463e+02, gap 0.0000%

